Minimize
 obj: 0
Subject to

\true constraints
   87 X1
 +    60 X2
 +    87 X3
 +    84 X4
 +    77 X5
< 197.500000

\multiple objectives
 -  95 X1
 -    96 X2
 -    64 X3
 -    91 X4
 -    92 X5
< 1
 -  82 X1
 -    68 X2
 -    94 X3
 -    97 X4
 -    62 X5
< 2
 -  65 X1
 -    60 X2
 -    65 X3
 -    91 X4
 -    90 X5
< 3
 -  61 X1
 -    96 X2
 -    61 X3
 -    81 X4
 -    93 X5
< 4
 -  84 X1
 -    92 X2
 -    80 X3
 -    69 X4
 -    74 X5
< 5
 -  99 X1
 -    94 X2
 -    87 X3
 -    97 X4
 -    80 X5
< 6
 -  69 X1
 -    63 X2
 -    61 X3
 -    62 X4
 -    92 X5
< 7



BINARY
X1
X2
X3
X4
X5
END
